1000
1000 1000
1 800 736
2 799 975
3 799 391
4 799 807
5 798 696
6 798 827
7 797 1000
8 796 39
9 796 676
10 795 931
11 795 879
12 795 956
13 795 672
14 795 995
15 794 734
16 793 424
17 792 135
18 791 570
19 789 544
20 789 432
21 789 406
22 788 587
23 788 701
24 788 891
25 788 128
26 787 166
27 787 56
28 786 310
29 782 213
30 782 736
31 781 385
32 781 767
33 780 796
34 780 886
35 780 198
36 780 282
37 778 661
38 776 784
39 776 621
40 775 674
41 774 697
42 773 1
43 772 768
44 770 754
45 769 83
46 768 274
47 768 69
48 768 19
49 768 499
50 768 714
51 766 652
52 766 91
53 764 457
54 760 822
55 760 556
56 759 858
57 759 748
58 759 460
59 759 769
60 759 976
61 759 449
62 758 289
63 758 33
64 757 10
65 756 136
66 756 881
67 755 56
68 755 30
69 754 890
70 754 337
71 753 728
72 753 544
73 753 501
74 753 117
75 752 559
76 752 595
77 751 738
78 751 931
79 750 404
80 750 219
81 750 916
82 750 951
83 749 210
84 748 901
85 748 396
86 748 446
87 747 901
88 747 116
89 747 384
90 746 72
91 746 117
92 745 610
93 745 960
94 745 259
95 744 49
96 744 322
97 744 369
98 744 640
99 744 765
100 744 521
101 743 251
102 741 565
103 741 248
104 741 87
105 740 956
106 740 882
107 738 585
108 738 831
109 738 909
110 737 991
111 737 25
112 736 714
113 735 210
114 735 418
115 734 625
116 732 924
117 731 371
118 731 738
119 731 53
120 731 763
121 730 451
122 729 613
123 728 501
124 728 545
125 727 166
126 726 98
127 726 191
128 726 22
129 726 974
130 726 165
131 725 704
132 724 446
133 724 93
134 723 320
135 723 455
136 721 262
137 721 233
138 721 543
139 721 617
140 720 158
141 720 763
142 720 461
143 719 753
144 719 791
145 719 139
146 719 343
147 718 227
148 718 387
149 718 959
150 717 557
151 716 228
152 716 455
153 715 25
154 715 758
155 714 737
156 713 749
157 713 440
158 711 409
159 710 734
160 709 889
161 709 132
162 708 158
163 708 367
164 708 379
165 707 290
166 707 97
167 707 648
168 706 175
169 706 604
170 706 937
171 705 45
172 705 619
173 704 215
174 703 829
175 702 892
176 702 282
177 700 821
178 700 432
179 700 243
180 699 616
181 698 999
182 698 6
183 697 192
184 695 25
185 695 654
186 694 401
187 694 647
188 694 397
189 693 716
190 693 304
191 691 736
192 691 417
193 691 4
194 691 456
195 689 246
196 687 486
197 686 449
198 686 439
199 685 690
200 685 141
201 684 703
202 684 808
203 683 540
204 683 267
205 682 344
206 682 899
207 682 692
208 682 458
209 681 424
210 681 643
211 681 189
212 679 155
213 679 415
214 678 103
215 678 432
216 678 195
217 677 40
218 677 142
219 677 815
220 676 834
221 675 680
222 674 512
223 674 950
224 673 313
225 672 608
226 672 690
227 671 112
228 670 817
229 670 157
230 670 322
231 668 117
232 667 592
233 667 286
234 665 122
235 665 832
236 665 761
237 665 609
238 663 806
239 663 337
240 663 825
241 660 730
242 659 679
243 659 230
244 659 911
245 659 92
246 658 255
247 658 715
248 658 82
249 658 773
250 658 896
251 658 426
252 657 272
253 657 209
254 657 179
255 656 519
256 655 421
257 654 733
258 653 877
259 652 603
260 652 608
261 652 843
262 652 354
263 652 35
264 650 776
265 650 34
266 649 934
267 649 10
268 648 406
269 647 618
270 646 656
271 646 345
272 645 304
273 645 875
274 645 72
275 643 575
276 642 581
277 642 360
278 642 724
279 641 967
280 641 307
281 641 144
282 641 304
283 641 270
284 640 912
285 640 465
286 640 42
287 640 748
288 640 929
289 640 504
290 639 226
291 639 537
292 638 597
293 637 300
294 637 425
295 636 423
296 636 870
297 635 684
298 634 645
299 634 12
300 633 484
301 633 767
302 632 413
303 632 54
304 631 452
305 630 645
306 628 639
307 626 478
308 626 308
309 626 705
310 625 827
311 625 233
312 624 824
313 623 220
314 622 854
315 622 671
316 622 579
317 621 914
318 621 942
319 621 740
320 621 651
321 620 843
322 620 357
323 620 400
324 619 677
325 618 323
326 618 26
327 617 648
328 616 756
329 616 125
330 616 96
331 613 740
332 613 731
333 613 725
334 612 132
335 611 988
336 610 667
337 610 31
338 610 59
339 608 140
340 608 198
341 608 964
342 608 260
343 607 415
344 606 395
345 603 436
346 603 14
347 602 929
348 601 314
349 600 319
350 600 966
351 600 162
352 599 734
353 599 483
354 598 199
355 596 42
356 596 948
357 594 682
358 594 971
359 592 335
360 591 501
361 591 529
362 590 832
363 590 965
364 590 80
365 590 964
366 589 853
367 588 24
368 588 794
369 588 856
370 588 490
371 587 425
372 587 632
373 587 3
374 586 860
375 586 438
376 585 573
377 585 646
378 585 306
379 584 918
380 584 23
381 584 288
382 583 483
383 580 324
384 579 604
385 579 858
386 578 446
387 578 676
388 577 286
389 576 321
390 576 805
391 576 714
392 576 143
393 575 622
394 574 231
395 574 327
396 573 780
397 573 732
398 572 619
399 571 739
400 571 218
401 571 444
402 571 68
403 569 869
404 569 429
405 567 253
406 566 167
407 565 80
408 565 471
409 563 839
410 562 222
411 562 0
412 560 798
413 560 100
414 559 703
415 558 462
416 558 891
417 558 889
418 557 634
419 556 224
420 555 121
421 555 293
422 554 850
423 554 581
424 554 904
425 553 835
426 552 156
427 551 998
428 551 478
429 550 156
430 550 956
431 550 842
432 550 675
433 550 458
434 550 579
435 549 437
436 549 63
437 548 918
438 548 248
439 548 488
440 547 405
441 547 378
442 546 266
443 545 24
444 544 184
445 543 471
446 543 496
447 543 685
448 542 395
449 541 72
450 541 847
451 539 973
452 538 241
453 538 59
454 538 960
455 537 569
456 534 263
457 534 332
458 532 901
459 531 348
460 531 719
461 530 502
462 530 987
463 528 49
464 527 126
465 527 229
466 527 612
467 526 610
468 526 648
469 525 936
470 525 659
471 525 480
472 523 63
473 522 681
474 521 564
475 520 550
476 519 839
477 519 535
478 519 232
479 518 347
480 517 330
481 517 591
482 514 990
483 514 887
484 512 474
485 512 135
486 511 785
487 508 415
488 507 252
489 506 567
490 506 556
491 506 503
492 504 456
493 504 375
494 503 196
495 502 726
496 499 467
497 499 487
498 498 918
499 498 528
500 498 50
501 497 411
502 496 27
503 496 739
504 495 668
505 494 152
506 491 836
507 491 73
508 491 824
509 490 463
510 489 638
511 489 83
512 488 206
513 487 29
514 487 432
515 486 20
516 485 698
517 485 721
518 485 27
519 484 111
520 482 881
521 482 357
522 481 582
523 479 624
524 478 390
525 478 384
526 478 710
527 477 790
528 477 565
529 477 998
530 476 245
531 475 831
532 474 490
533 474 160
534 473 733
535 473 722
536 473 424
537 472 995
538 472 854
539 471 803
540 468 280
541 467 781
542 466 843
543 466 839
544 466 572
545 464 746
546 463 701
547 461 661
548 461 900
549 461 100
550 461 576
551 460 700
552 459 186
553 458 479
554 458 134
555 457 215
556 457 263
557 457 436
558 457 759
559 456 669
560 456 493
561 455 247
562 454 612
563 454 206
564 454 344
565 453 372
566 453 510
567 453 506
568 453 560
569 453 597
570 452 165
571 450 518
572 445 839
573 444 591
574 444 45
575 442 654
576 442 257
577 440 406
578 439 108
579 439 611
580 439 223
581 439 339
582 438 739
583 437 784
584 436 807
585 436 379
586 435 873
587 435 575
588 434 861
589 434 685
590 433 292
591 432 289
592 431 88
593 431 327
594 431 124
595 430 4
596 430 816
597 430 95
598 429 166
599 429 196
600 429 39
601 427 1000
602 427 774
603 427 249
604 427 595
605 426 857
606 426 766
607 425 592
608 425 73
609 425 924
610 424 169
611 423 397
612 423 901
613 423 522
614 422 419
615 422 177
616 421 640
617 420 757
618 419 486
619 419 256
620 419 904
621 418 259
622 418 967
623 418 779
624 418 826
625 417 877
626 417 533
627 417 752
628 417 906
629 416 774
630 416 860
631 416 675
632 415 102
633 415 769
634 415 714
635 414 411
636 413 948
637 412 374
638 411 769
639 411 854
640 411 257
641 411 741
642 410 315
643 409 853
644 408 414
645 407 810
646 406 879
647 406 855
648 405 83
649 403 521
650 403 949
651 402 838
652 402 201
653 402 209
654 402 197
655 402 902
656 401 436
657 401 23
658 400 809
659 399 964
660 399 612
661 397 23
662 397 968
663 397 614
664 396 793
665 396 424
666 396 164
667 395 900
668 392 585
669 391 213
670 390 730
671 390 651
672 390 379
673 388 63
674 387 910
675 387 479
676 387 587
677 387 780
678 386 405
679 386 707
680 386 185
681 386 359
682 386 498
683 384 750
684 382 748
685 382 134
686 380 119
687 377 524
688 377 47
689 377 481
690 376 348
691 376 613
692 375 631
693 375 144
694 374 873
695 373 215
696 373 858
697 372 883
698 371 41
699 371 264
700 371 216
701 371 685
702 370 365
703 370 325
704 369 164
705 368 762
706 367 803
707 366 719
708 366 895
709 366 704
710 365 406
711 365 360
712 365 754
713 365 653
714 365 539
715 364 46
716 364 719
717 364 786
718 364 259
719 363 306
720 362 195
721 362 880
722 360 566
723 360 388
724 359 464
725 359 304
726 359 638
727 358 71
728 358 654
729 358 95
730 357 128
731 357 262
732 356 271
733 356 585
734 356 305
735 355 575
736 355 450
737 354 693
738 353 990
739 353 119
740 352 40
741 352 118
742 351 780
743 350 82
744 348 495
745 348 280
746 347 550
747 347 650
748 346 826
749 346 528
750 346 36
751 346 33
752 345 621
753 345 943
754 345 822
755 345 511
756 344 846
757 344 979
758 343 915
759 342 643
760 341 927
761 341 916
762 340 614
763 338 657
764 337 83
765 337 463
766 337 495
767 336 734
768 336 852
769 336 349
770 335 783
771 335 931
772 335 643
773 335 866
774 335 461
775 334 665
776 334 923
777 334 505
778 333 696
779 333 902
780 333 260
781 332 434
782 332 144
783 332 231
784 331 365
785 330 932
786 330 400
787 329 509
788 329 330
789 327 539
790 327 818
791 326 928
792 326 684
793 326 317
794 326 684
795 325 658
796 324 598
797 323 105
798 323 638
799 323 660
800 321 126
801 320 268
802 319 412
803 318 499
804 317 863
805 316 523
806 316 561
807 316 561
808 316 912
809 316 490
810 316 191
811 316 957
812 315 83
813 315 872
814 315 684
815 315 761
816 314 497
817 313 783
818 312 948
819 312 310
820 311 961
821 311 543
822 310 498
823 309 622
824 308 952
825 307 517
826 307 303
827 306 67
828 305 598
829 305 499
830 304 966
831 304 437
832 303 930
833 303 249
834 302 588
835 302 776
836 302 26
837 300 242
838 300 925
839 300 580
840 299 939
841 299 494
842 298 600
843 296 374
844 296 32
845 295 513
846 295 491
847 293 615
848 292 288
849 291 700
850 291 101
851 290 542
852 290 111
853 289 320
854 289 884
855 288 76
856 286 432
857 285 578
858 284 478
859 284 156
860 283 344
861 283 131
862 282 257
863 282 535
864 282 842
865 282 283
866 281 894
867 281 920
868 279 527
869 279 193
870 278 917
871 278 744
872 278 11
873 278 406
874 278 356
875 278 149
876 277 785
877 277 405
878 277 995
879 277 332
880 276 981
881 274 555
882 274 379
883 274 724
884 273 115
885 272 300
886 272 904
887 272 925
888 270 863
889 270 723
890 269 212
891 267 730
892 266 850
893 265 878
894 264 694
895 264 621
896 263 680
897 263 91
898 263 403
899 262 951
900 261 454
901 260 631
902 260 677
903 260 68
904 259 949
905 259 790
906 257 487
907 256 39
908 255 701
909 253 150
910 253 786
911 253 310
912 252 966
913 252 237
914 251 672
915 251 655
916 250 184
917 250 981
918 247 178
919 245 401
920 245 482
921 244 738
922 243 662
923 242 8
924 242 372
925 241 145
926 241 608
927 240 351
928 240 196
929 240 859
930 239 881
931 239 165
932 238 729
933 237 994
934 235 583
935 233 286
936 233 525
937 233 103
938 232 214
939 231 565
940 231 917
941 231 17
942 229 757
943 229 32
944 228 914
945 227 929
946 227 290
947 227 925
948 227 682
949 226 737
950 226 306
951 225 871
952 225 466
953 225 710
954 219 49
955 218 591
956 218 344
957 218 808
958 217 60
959 217 779
960 217 311
961 217 83
962 217 453
963 216 826
964 216 593
965 215 303
966 213 742
967 213 336
968 213 278
969 213 501
970 212 499
971 211 65
972 211 560
973 211 492
974 210 721
975 210 483
976 210 655
977 209 423
978 209 952
979 209 980
980 208 241
981 208 627
982 207 900
983 206 657
984 206 153
985 205 41
986 205 183
987 204 70
988 204 10
989 204 502
990 204 756
991 203 459
992 203 909
993 203 71
994 203 867
995 202 443
996 202 427
997 201 512
998 200 853
999 200 508
1000 200 154
